100 10
405 520
617 715
438 293
770 471
510 699
722 403
319 354
618 620
927 530
529 492
473 661
677 181
866 657
862 676
706 558
341 493
317 414
404 741
451 397
688 848
572 212
245 501
87 946
493 298
143 11
553 248
367 599
842 811
570 777
573 449
616 256
371 954
682 533
331 259
697 301
539 865
541 529
353 154
352 292
484 217
684 574
351 471
201 945
416 337
372 546
89 280
454 560
608 754
345 886
340 831
570 611
219 273
678 638
636 574
511 247
528 770
311 117
279 418
706 323
495 441
288 727
563 537
545 275
421 437
228 446
696 798
634 371
615 895
535 192
204 638
257 703
453 677
457 334
308 59
523 638
413 40
600 446
226 277
889 810
480 554
700 441
103 234
783 645
186 334
451 451
185 132
716 683
785 765
587 416
183 876
565 613
433 177
294 272
607 412
251 565
216 374
699 787
714 339
92 485
473 514
